instances/knapsack/discrete/knapsack_110_18.lp
\ Model knapsack_110_18
\ LP format - for model browsing. Use MPS format to capture full model detail.
\ Signature: 0x1c7a262dccd0e095
Minimize
  - 92 x[0] - 93 x[1] - 46 x[2] - 86 x[3] - 4 x[4] - 43 x[5] - 96 x[6]
   - 70 x[7] - 49 x[8] - 45 x[9] - 9 x[10] - 21 x[11] - 97 x[12] - 72 x[13]
   - 93 x[14] - 82 x[15] - 96 x[16] - 4 x[17] - 97 x[18] - 24 x[19]
   - 4 x[20] - 25 x[21] - 90 x[22] - 54 x[23] - 67 x[24] - 21 x[25]
   - 22 x[26] - 86 x[27] - 20 x[28] - 71 x[29] - 7 x[30] - 42 x[31]
   - 2 x[32] - 5 x[33] - 82 x[34] - 15 x[35] - 35 x[36] - 93 x[37]
   - 89 x[38] - 14 x[39] - 46 x[40] - 36 x[41] - 80 x[42] - 69 x[43]
   - 5 x[44] - 65 x[45] - 15 x[46] - 51 x[47] - 3 x[48] - 8 x[49]
   - 57 x[50] - 73 x[51] - 81 x[52] - 23 x[53] - 6 x[54] - 48 x[55]
   - 57 x[56] - 10 x[57] - 26 x[58] - 93 x[59] - 54 x[60] - 36 x[61]
   - 56 x[62] - 56 x[63] - 9 x[64] - 67 x[65] - 31 x[66] - 64 x[67]
   - 79 x[68] - 16 x[69] - 15 x[70] - 81 x[71] - 23 x[72] - 52 x[73]
   - 25 x[74] - 56 x[75] - 96 x[76] - 83 x[77] - 62 x[78] - 54 x[79]
   - 65 x[80] - 48 x[81] - 84 x[82] - 20 x[83] - 7 x[84] - 87 x[85]
   - 24 x[86] - 81 x[87] - 10 x[88] - 89 x[89] - 28 x[90] - 48 x[91]
   - 88 x[92] - 55 x[93] - 58 x[94] - 5 x[95] - 59 x[96] - 86 x[97]
   - 67 x[98] - 95 x[99] - 63 x[100] - 44 x[101] - 77 x[102] - 72 x[103]
   - 33 x[104] - 73 x[105] - 12 x[106] - 3 x[107] - 4 x[108] - 75 x[109]
Subject To
 primal_upper: 42 x[0] + 50 x[1] + 88 x[2] + 97 x[3] + 74 x[4] + 96 x[5]
   + 79 x[6] + 46 x[7] + 7 x[8] + 32 x[9] + 86 x[10] + 45 x[11] + 2 x[12]
   + 54 x[13] + 35 x[14] + 27 x[15] + 55 x[16] + 6 x[17] + 71 x[18]
   + 56 x[19] + 23 x[20] + 46 x[21] + 14 x[22] + 69 x[23] + 3 x[24]
   + 30 x[25] + 48 x[26] + 70 x[27] + 76 x[28] + x[29] + 76 x[30]
   + 38 x[31] + 86 x[32] + 31 x[33] + 34 x[34] + 7 x[35] + 54 x[36]
   + 71 x[37] + 42 x[38] + 65 x[39] + 29 x[40] + 96 x[41] + 44 x[42]
   + 68 x[43] + 57 x[44] + 13 x[45] + 36 x[46] + 84 x[47] + 29 x[48]
   + 22 x[49] + 97 x[50] + 74 x[51] + 59 x[52] + 74 x[53] + 11 x[54]
   + 90 x[55] + 7 x[56] + 73 x[57] + 66 x[58] + 64 x[59] + 31 x[60]
   + 89 x[61] + 82 x[62] + 93 x[63] + 66 x[64] + 54 x[65] + 95 x[66]
   + 93 x[67] + 66 x[68] + 64 x[69] + 20 x[70] + 40 x[71] + 96 x[72]
   + 69 x[73] + 82 x[74] + 35 x[75] + 85 x[76] + 25 x[77] + 59 x[78]
   + 61 x[79] + 64 x[80] + 88 x[81] + 65 x[82] + 20 x[83] + 4 x[84]
   + 96 x[85] + 82 x[86] + 66 x[87] + 12 x[88] + 33 x[89] + 83 x[90]
   + 31 x[91] + 35 x[92] + 66 x[93] + 86 x[94] + 43 x[95] + 35 x[96]
   + 55 x[97] + 30 x[98] + 70 x[99] + 79 x[100] + 22 x[101] + 40 x[102]
   + 82 x[103] + 15 x[104] + 84 x[105] + 89 x[106] + 89 x[107] + 57 x[108]
   + 35 x[109] + 4.2 r[0] + 5 r[1] + 8.8 r[2] + 9.7 r[3] + 7.4 r[4]
   + 9.6 r[5] + 7.9 r[6] + 4.6 r[7] + 0.7 r[8] + 3.2 r[9] + 8.6 r[10]
   + 4.5 r[11] + 0.2 r[12] + 5.4 r[13] + 3.5 r[14] + 2.7 r[15] + 5.5 r[16]
   + 0.6 r[17] + 7.1 r[18] + 5.6 r[19] + 2.3 r[20] + 4.6 r[21] + 1.4 r[22]
   + 6.9 r[23] + 0.3 r[24] + 3 r[25] + 4.8 r[26] + 7 r[27] + 7.6 r[28]
   + 0.1 r[29] + 7.6 r[30] + 3.8 r[31] + 8.6 r[32] + 3.1 r[33] + 3.4 r[34]
   + 0.7 r[35] + 5.4 r[36] + 7.1 r[37] + 4.2 r[38] + 6.5 r[39] + 2.9 r[40]
   + 9.6 r[41] + 4.4 r[42] + 6.8 r[43] + 5.7 r[44] + 1.3 r[45] + 3.6 r[46]
   + 8.4 r[47] + 2.9 r[48] + 2.2 r[49] + 9.7 r[50] + 7.4 r[51] + 5.9 r[52]
   + 7.4 r[53] + 1.1 r[54] + 9 r[55] + 0.7 r[56] + 7.3 r[57] + 6.6 r[58]
   + 6.4 r[59] + 3.1 r[60] + 8.9 r[61] + 8.2 r[62] + 9.3 r[63] + 6.6 r[64]
   + 5.4 r[65] + 9.5 r[66] + 9.3 r[67] + 6.6 r[68] + 6.4 r[69] + 2 r[70]
   + 4 r[71] + 9.6 r[72] + 6.9 r[73] + 8.2 r[74] + 3.5 r[75] + 8.5 r[76]
   + 2.5 r[77] + 5.9 r[78] + 6.1 r[79] + 6.4 r[80] + 8.8 r[81] + 6.5 r[82]
   + 2 r[83] + 0.4 r[84] + 9.6 r[85] + 8.2 r[86] + 6.6 r[87] + 1.2 r[88]
   + 3.3 r[89] + 8.3 r[90] + 3.1 r[91] + 3.5 r[92] + 6.6 r[93] + 8.6 r[94]
   + 4.3 r[95] + 3.5 r[96] + 5.5 r[97] + 3 r[98] + 7 r[99] + 7.9 r[100]
   + 2.2 r[101] + 4 r[102] + 8.2 r[103] + 1.5 r[104] + 8.4 r[105]
   + 8.9 r[106] + 8.9 r[107] + 5.7 r[108] + 3.5 r[109] <= 570
 primal_lower: 4.249295600255187 x[0] + 4.206281901083427 x[1]
   + 0.6381577905987595 x[2] + 0.4220532188542009 x[3]
   + 3.644005171537539 x[4] + 3.936809479435587 x[5]
   + 3.344357127968693 x[6] + 0.8912721030419527 x[7]
   + 2.04279920881975 x[8] + 0.5388722003719073 x[9]
   + 3.298219093009303 x[10] + 4.310288865952561 x[11]
   + 0.860164796224743 x[12] + 2.109956692086173 x[13]
   + 2.665432078045546 x[14] + 1.052342258440221 x[15]
   + 0.1568113091783194 x[16] + 2.768703346565619 x[17]
   + 4.498759839487544 x[18] + 3.49668757252545 x[19]
   + 3.659532303103951 x[20] + 3.182508000575351 x[21]
   + 2.615397048213623 x[22] + 0.5435475070470154 x[23]
   + 0.5472431936006095 x[24] + 2.546805106045705 x[25]
   + 1.136885854890941 x[26] + 0.3206640420177629 x[27]
   + 2.244605427631117 x[28] + 2.341761926935709 x[29]
   + 0.4273644982178444 x[30] + 3.597378785321856 x[31]
   + 4.022153611255081 x[32] + 1.268109133561886 x[33]
   + 0.0652079958019283 x[34] + 2.036223940923813 x[35]
   + 1.717462120102703 x[36] + 1.42187672900721 x[37]
   + 2.443958718322901 x[38] + 2.634548865202404 x[39]
   + 3.641316343857488 x[40] + 2.516618489887844 x[41]
   + 2.474634488155543 x[42] + 0.7963903299822239 x[43]
   + 3.434429933158619 x[44] + 1.000645677993553 x[45]
   + 1.335392095157899 x[46] + 0.743433965532696 x[47]
   + 4.693074936858728 x[48] + 0.4305512214731355 x[49]
   + 0.8996724581391571 x[50] + 1.577472134179461 x[51]
   + 1.398180868752521 x[52] + 2.657614170595898 x[53]
   + 0.7506272709947466 x[54] + 3.389232510033494 x[55]
   + 4.209834935202567 x[56] + 1.413584539426497 x[57]
   + 2.06667240687836 x[58] + 2.061932987201884 x[59]
   + 0.8825017958754763 x[60] + 0.6816759838276322 x[61]
   + 1.892012229619978 x[62] + 1.792148021339663 x[63]
   + 1.844822608804937 x[64] + 3.101077713351046 x[65]
   + 0.9411361128608329 x[66] + 4.72691327893716 x[67]
   + 1.668800037451352 x[68] + 0.4780330156420198 x[69]
   + 2.871731074656674 x[70] + 4.505006001256699 x[71]
   + 3.351571836296992 x[72] + 0.4777775446120152 x[73]
   + 3.146474436423456 x[74] + 2.486729969492738 x[75]
   + 4.515045693766313 x[76] + 4.355485647801324 x[77]
   + 0.4590721538674253 x[78] + 2.525775515908793 x[79]
   + 1.516688553711825 x[80] + 3.404260711333322 x[81]
   + 4.248545519695887 x[82] + 1.93771589592341 x[83]
   + 1.071677732633332 x[84] + 4.679100791476963 x[85]
   + 0.2191766310083712 x[86] + 1.792523368176237 x[87]
   + 3.586499366565836 x[88] + 1.722612048784517 x[89]
   + 1.725420766280837 x[90] + 1.049176263566895 x[91]
   + 0.9022103464043653 x[92] + 2.407249841972712 x[93]
   + 0.8101299427769353 x[94] + 3.154935541303557 x[95]
   + 3.745075171807349 x[96] + 2.460329151934084 x[97]
   + 2.855815455527587 x[98] + 1.296658794405991 x[99]
   + 3.387213780855415 x[100] + 2.629368803291435 x[101]
   + 3.381963958992903 x[102] + 3.434193149024013 x[103]
   + 4.419610872890058 x[104] + 0.817825313958741 x[105]
   + 1.414245340624531 x[106] + 4.185030866766488 x[107]
   + 2.752893986520168 x[108] + 1.899030963616594 x[109] + 77 u[0]
   + 61 u[1] + 59 u[2] + 36 u[3] + 49 u[4] + 95 u[5] + 78 u[6] + 57 u[7]
   + 10 u[8] + 79 u[9] + 81 u[10] + 32 u[11] + 61 u[12] + 5 u[13]
   + 62 u[14] + 2 u[15] + 46 u[16] + 53 u[17] + 2 u[18] + 43 u[19]
   + 6 u[20] + 93 u[21] + 13 u[22] + 44 u[23] + 30 u[24] + 73 u[25]
   + 87 u[26] + 5 u[27] + 87 u[28] + 88 u[29] + 75 u[30] + 21 u[31]
   + 61 u[32] + 42 u[33] + 69 u[34] + 14 u[35] + 85 u[36] + 82 u[37]
   + 45 u[38] + 84 u[39] + 8 u[40] + 79 u[41] + 19 u[42] + 63 u[43]
   + 12 u[44] + 12 u[45] + 23 u[46] + 87 u[47] + 48 u[48] + 49 u[49]
   + 64 u[50] + u[51] + 54 u[52] + 93 u[53] + 78 u[54] + 93 u[55]
   + 30 u[56] + 64 u[57] + 97 u[58] + 75 u[59] + 54 u[60] + 92 u[61]
   + 57 u[62] + 80 u[63] + 53 u[64] + 17 u[65] + 46 u[66] + 32 u[67]
   + 45 u[68] + 79 u[69] + 91 u[70] + 79 u[71] + 39 u[72] + 72 u[73]
   + 89 u[74] + 30 u[75] + 52 u[76] + 60 u[77] + 74 u[78] + 8 u[79]
   + 7 u[80] + 39 u[81] + 4 u[82] + 39 u[83] + 39 u[84] + 51 u[85] + u[86]
   + 45 u[87] + 83 u[88] + 68 u[89] + 66 u[90] + 62 u[91] + 86 u[92]
   + 33 u[93] + 9 u[94] + 46 u[95] + 30 u[96] + 14 u[97] + 93 u[98]
   + 21 u[99] + 74 u[100] + 53 u[101] + 91 u[102] + 9 u[103] + 54 u[104]
   + 51 u[105] + 36 u[106] + 4 u[107] + 72 u[108] + 22 u[109] <= 72844
 mccormick1[0]: - u[0] + r[0] <= 0
 mccormick1[1]: - u[1] + r[1] <= 0
 mccormick1[2]: - u[2] + r[2] <= 0
 mccormick1[3]: - u[3] + r[3] <= 0
 mccormick1[4]: - u[4] + r[4] <= 0
 mccormick1[5]: - u[5] + r[5] <= 0
 mccormick1[6]: - u[6] + r[6] <= 0
 mccormick1[7]: - u[7] + r[7] <= 0
 mccormick1[8]: - u[8] + r[8] <= 0
 mccormick1[9]: - u[9] + r[9] <= 0
 mccormick1[10]: - u[10] + r[10] <= 0
 mccormick1[11]: - u[11] + r[11] <= 0
 mccormick1[12]: - u[12] + r[12] <= 0
 mccormick1[13]: - u[13] + r[13] <= 0
 mccormick1[14]: - u[14] + r[14] <= 0
 mccormick1[15]: - u[15] + r[15] <= 0
 mccormick1[16]: - u[16] + r[16] <= 0
 mccormick1[17]: - u[17] + r[17] <= 0
 mccormick1[18]: - u[18] + r[18] <= 0
 mccormick1[19]: - u[19] + r[19] <= 0
 mccormick1[20]: - u[20] + r[20] <= 0
 mccormick1[21]: - u[21] + r[21] <= 0
 mccormick1[22]: - u[22] + r[22] <= 0
 mccormick1[23]: - u[23] + r[23] <= 0
 mccormick1[24]: - u[24] + r[24] <= 0
 mccormick1[25]: - u[25] + r[25] <= 0
 mccormick1[26]: - u[26] + r[26] <= 0
 mccormick1[27]: - u[27] + r[27] <= 0
 mccormick1[28]: - u[28] + r[28] <= 0
 mccormick1[29]: - u[29] + r[29] <= 0
 mccormick1[30]: - u[30] + r[30] <= 0
 mccormick1[31]: - u[31] + r[31] <= 0
 mccormick1[32]: - u[32] + r[32] <= 0
 mccormick1[33]: - u[33] + r[33] <= 0
 mccormick1[34]: - u[34] + r[34] <= 0
 mccormick1[35]: - u[35] + r[35] <= 0
 mccormick1[36]: - u[36] + r[36] <= 0
 mccormick1[37]: - u[37] + r[37] <= 0
 mccormick1[38]: - u[38] + r[38] <= 0
 mccormick1[39]: - u[39] + r[39] <= 0
 mccormick1[40]: - u[40] + r[40] <= 0
 mccormick1[41]: - u[41] + r[41] <= 0
 mccormick1[42]: - u[42] + r[42] <= 0
 mccormick1[43]: - u[43] + r[43] <= 0
 mccormick1[44]: - u[44] + r[44] <= 0
 mccormick1[45]: - u[45] + r[45] <= 0
 mccormick1[46]: - u[46] + r[46] <= 0
 mccormick1[47]: - u[47] + r[47] <= 0
 mccormick1[48]: - u[48] + r[48] <= 0
 mccormick1[49]: - u[49] + r[49] <= 0
 mccormick1[50]: - u[50] + r[50] <= 0
 mccormick1[51]: - u[51] + r[51] <= 0
 mccormick1[52]: - u[52] + r[52] <= 0
 mccormick1[53]: - u[53] + r[53] <= 0
 mccormick1[54]: - u[54] + r[54] <= 0
 mccormick1[55]: - u[55] + r[55] <= 0
 mccormick1[56]: - u[56] + r[56] <= 0
 mccormick1[57]: - u[57] + r[57] <= 0
 mccormick1[58]: - u[58] + r[58] <= 0
 mccormick1[59]: - u[59] + r[59] <= 0
 mccormick1[60]: - u[60] + r[60] <= 0
 mccormick1[61]: - u[61] + r[61] <= 0
 mccormick1[62]: - u[62] + r[62] <= 0
 mccormick1[63]: - u[63] + r[63] <= 0
 mccormick1[64]: - u[64] + r[64] <= 0
 mccormick1[65]: - u[65] + r[65] <= 0
 mccormick1[66]: - u[66] + r[66] <= 0
 mccormick1[67]: - u[67] + r[67] <= 0
 mccormick1[68]: - u[68] + r[68] <= 0
 mccormick1[69]: - u[69] + r[69] <= 0
 mccormick1[70]: - u[70] + r[70] <= 0
 mccormick1[71]: - u[71] + r[71] <= 0
 mccormick1[72]: - u[72] + r[72] <= 0
 mccormick1[73]: - u[73] + r[73] <= 0
 mccormick1[74]: - u[74] + r[74] <= 0
 mccormick1[75]: - u[75] + r[75] <= 0
 mccormick1[76]: - u[76] + r[76] <= 0
 mccormick1[77]: - u[77] + r[77] <= 0
 mccormick1[78]: - u[78] + r[78] <= 0
 mccormick1[79]: - u[79] + r[79] <= 0
 mccormick1[80]: - u[80] + r[80] <= 0
 mccormick1[81]: - u[81] + r[81] <= 0
 mccormick1[82]: - u[82] + r[82] <= 0
 mccormick1[83]: - u[83] + r[83] <= 0
 mccormick1[84]: - u[84] + r[84] <= 0
 mccormick1[85]: - u[85] + r[85] <= 0
 mccormick1[86]: - u[86] + r[86] <= 0
 mccormick1[87]: - u[87] + r[87] <= 0
 mccormick1[88]: - u[88] + r[88] <= 0
 mccormick1[89]: - u[89] + r[89] <= 0
 mccormick1[90]: - u[90] + r[90] <= 0
 mccormick1[91]: - u[91] + r[91] <= 0
 mccormick1[92]: - u[92] + r[92] <= 0
 mccormick1[93]: - u[93] + r[93] <= 0
 mccormick1[94]: - u[94] + r[94] <= 0
 mccormick1[95]: - u[95] + r[95] <= 0
 mccormick1[96]: - u[96] + r[96] <= 0
 mccormick1[97]: - u[97] + r[97] <= 0
 mccormick1[98]: - u[98] + r[98] <= 0
 mccormick1[99]: - u[99] + r[99] <= 0
 mccormick1[100]: - u[100] + r[100] <= 0
 mccormick1[101]: - u[101] + r[101] <= 0
 mccormick1[102]: - u[102] + r[102] <= 0
 mccormick1[103]: - u[103] + r[103] <= 0
 mccormick1[104]: - u[104] + r[104] <= 0
 mccormick1[105]: - u[105] + r[105] <= 0
 mccormick1[106]: - u[106] + r[106] <= 0
 mccormick1[107]: - u[107] + r[107] <= 0
 mccormick1[108]: - u[108] + r[108] <= 0
 mccormick1[109]: - u[109] + r[109] <= 0
 mccormick2[0]: - x[0] + r[0] <= 0
 mccormick2[1]: - x[1] + r[1] <= 0
 mccormick2[2]: - x[2] + r[2] <= 0
 mccormick2[3]: - x[3] + r[3] <= 0
 mccormick2[4]: - x[4] + r[4] <= 0
 mccormick2[5]: - x[5] + r[5] <= 0
 mccormick2[6]: - x[6] + r[6] <= 0
 mccormick2[7]: - x[7] + r[7] <= 0
 mccormick2[8]: - x[8] + r[8] <= 0
 mccormick2[9]: - x[9] + r[9] <= 0
 mccormick2[10]: - x[10] + r[10] <= 0
 mccormick2[11]: - x[11] + r[11] <= 0
 mccormick2[12]: - x[12] + r[12] <= 0
 mccormick2[13]: - x[13] + r[13] <= 0
 mccormick2[14]: - x[14] + r[14] <= 0
 mccormick2[15]: - x[15] + r[15] <= 0
 mccormick2[16]: - x[16] + r[16] <= 0
 mccormick2[17]: - x[17] + r[17] <= 0
 mccormick2[18]: - x[18] + r[18] <= 0
 mccormick2[19]: - x[19] + r[19] <= 0
 mccormick2[20]: - x[20] + r[20] <= 0
 mccormick2[21]: - x[21] + r[21] <= 0
 mccormick2[22]: - x[22] + r[22] <= 0
 mccormick2[23]: - x[23] + r[23] <= 0
 mccormick2[24]: - x[24] + r[24] <= 0
 mccormick2[25]: - x[25] + r[25] <= 0
 mccormick2[26]: - x[26] + r[26] <= 0
 mccormick2[27]: - x[27] + r[27] <= 0
 mccormick2[28]: - x[28] + r[28] <= 0
 mccormick2[29]: - x[29] + r[29] <= 0
 mccormick2[30]: - x[30] + r[30] <= 0
 mccormick2[31]: - x[31] + r[31] <= 0
 mccormick2[32]: - x[32] + r[32] <= 0
 mccormick2[33]: - x[33] + r[33] <= 0
 mccormick2[34]: - x[34] + r[34] <= 0
 mccormick2[35]: - x[35] + r[35] <= 0
 mccormick2[36]: - x[36] + r[36] <= 0
 mccormick2[37]: - x[37] + r[37] <= 0
 mccormick2[38]: - x[38] + r[38] <= 0
 mccormick2[39]: - x[39] + r[39] <= 0
 mccormick2[40]: - x[40] + r[40] <= 0
 mccormick2[41]: - x[41] + r[41] <= 0
 mccormick2[42]: - x[42] + r[42] <= 0
 mccormick2[43]: - x[43] + r[43] <= 0
 mccormick2[44]: - x[44] + r[44] <= 0
 mccormick2[45]: - x[45] + r[45] <= 0
 mccormick2[46]: - x[46] + r[46] <= 0
 mccormick2[47]: - x[47] + r[47] <= 0
 mccormick2[48]: - x[48] + r[48] <= 0
 mccormick2[49]: - x[49] + r[49] <= 0
 mccormick2[50]: - x[50] + r[50] <= 0
 mccormick2[51]: - x[51] + r[51] <= 0
 mccormick2[52]: - x[52] + r[52] <= 0
 mccormick2[53]: - x[53] + r[53] <= 0
 mccormick2[54]: - x[54] + r[54] <= 0
 mccormick2[55]: - x[55] + r[55] <= 0
 mccormick2[56]: - x[56] + r[56] <= 0
 mccormick2[57]: - x[57] + r[57] <= 0
 mccormick2[58]: - x[58] + r[58] <= 0
 mccormick2[59]: - x[59] + r[59] <= 0
 mccormick2[60]: - x[60] + r[60] <= 0
 mccormick2[61]: - x[61] + r[61] <= 0
 mccormick2[62]: - x[62] + r[62] <= 0
 mccormick2[63]: - x[63] + r[63] <= 0
 mccormick2[64]: - x[64] + r[64] <= 0
 mccormick2[65]: - x[65] + r[65] <= 0
 mccormick2[66]: - x[66] + r[66] <= 0
 mccormick2[67]: - x[67] + r[67] <= 0
 mccormick2[68]: - x[68] + r[68] <= 0
 mccormick2[69]: - x[69] + r[69] <= 0
 mccormick2[70]: - x[70] + r[70] <= 0
 mccormick2[71]: - x[71] + r[71] <= 0
 mccormick2[72]: - x[72] + r[72] <= 0
 mccormick2[73]: - x[73] + r[73] <= 0
 mccormick2[74]: - x[74] + r[74] <= 0
 mccormick2[75]: - x[75] + r[75] <= 0
 mccormick2[76]: - x[76] + r[76] <= 0
 mccormick2[77]: - x[77] + r[77] <= 0
 mccormick2[78]: - x[78] + r[78] <= 0
 mccormick2[79]: - x[79] + r[79] <= 0
 mccormick2[80]: - x[80] + r[80] <= 0
 mccormick2[81]: - x[81] + r[81] <= 0
 mccormick2[82]: - x[82] + r[82] <= 0
 mccormick2[83]: - x[83] + r[83] <= 0
 mccormick2[84]: - x[84] + r[84] <= 0
 mccormick2[85]: - x[85] + r[85] <= 0
 mccormick2[86]: - x[86] + r[86] <= 0
 mccormick2[87]: - x[87] + r[87] <= 0
 mccormick2[88]: - x[88] + r[88] <= 0
 mccormick2[89]: - x[89] + r[89] <= 0
 mccormick2[90]: - x[90] + r[90] <= 0
 mccormick2[91]: - x[91] + r[91] <= 0
 mccormick2[92]: - x[92] + r[92] <= 0
 mccormick2[93]: - x[93] + r[93] <= 0
 mccormick2[94]: - x[94] + r[94] <= 0
 mccormick2[95]: - x[95] + r[95] <= 0
 mccormick2[96]: - x[96] + r[96] <= 0
 mccormick2[97]: - x[97] + r[97] <= 0
 mccormick2[98]: - x[98] + r[98] <= 0
 mccormick2[99]: - x[99] + r[99] <= 0
 mccormick2[100]: - x[100] + r[100] <= 0
 mccormick2[101]: - x[101] + r[101] <= 0
 mccormick2[102]: - x[102] + r[102] <= 0
 mccormick2[103]: - x[103] + r[103] <= 0
 mccormick2[104]: - x[104] + r[104] <= 0
 mccormick2[105]: - x[105] + r[105] <= 0
 mccormick2[106]: - x[106] + r[106] <= 0
 mccormick2[107]: - x[107] + r[107] <= 0
 mccormick2[108]: - x[108] + r[108] <= 0
 mccormick2[109]: - x[109] + r[109] <= 0
 mccormick3[0]: x[0] + u[0] - r[0] <= 1
 mccormick3[1]: x[1] + u[1] - r[1] <= 1
 mccormick3[2]: x[2] + u[2] - r[2] <= 1
 mccormick3[3]: x[3] + u[3] - r[3] <= 1
 mccormick3[4]: x[4] + u[4] - r[4] <= 1
 mccormick3[5]: x[5] + u[5] - r[5] <= 1
 mccormick3[6]: x[6] + u[6] - r[6] <= 1
 mccormick3[7]: x[7] + u[7] - r[7] <= 1
 mccormick3[8]: x[8] + u[8] - r[8] <= 1
 mccormick3[9]: x[9] + u[9] - r[9] <= 1
 mccormick3[10]: x[10] + u[10] - r[10] <= 1
 mccormick3[11]: x[11] + u[11] - r[11] <= 1
 mccormick3[12]: x[12] + u[12] - r[12] <= 1
 mccormick3[13]: x[13] + u[13] - r[13] <= 1
 mccormick3[14]: x[14] + u[14] - r[14] <= 1
 mccormick3[15]: x[15] + u[15] - r[15] <= 1
 mccormick3[16]: x[16] + u[16] - r[16] <= 1
 mccormick3[17]: x[17] + u[17] - r[17] <= 1
 mccormick3[18]: x[18] + u[18] - r[18] <= 1
 mccormick3[19]: x[19] + u[19] - r[19] <= 1
 mccormick3[20]: x[20] + u[20] - r[20] <= 1
 mccormick3[21]: x[21] + u[21] - r[21] <= 1
 mccormick3[22]: x[22] + u[22] - r[22] <= 1
 mccormick3[23]: x[23] + u[23] - r[23] <= 1
 mccormick3[24]: x[24] + u[24] - r[24] <= 1
 mccormick3[25]: x[25] + u[25] - r[25] <= 1
 mccormick3[26]: x[26] + u[26] - r[26] <= 1
 mccormick3[27]: x[27] + u[27] - r[27] <= 1
 mccormick3[28]: x[28] + u[28] - r[28] <= 1
 mccormick3[29]: x[29] + u[29] - r[29] <= 1
 mccormick3[30]: x[30] + u[30] - r[30] <= 1
 mccormick3[31]: x[31] + u[31] - r[31] <= 1
 mccormick3[32]: x[32] + u[32] - r[32] <= 1
 mccormick3[33]: x[33] + u[33] - r[33] <= 1
 mccormick3[34]: x[34] + u[34] - r[34] <= 1
 mccormick3[35]: x[35] + u[35] - r[35] <= 1
 mccormick3[36]: x[36] + u[36] - r[36] <= 1
 mccormick3[37]: x[37] + u[37] - r[37] <= 1
 mccormick3[38]: x[38] + u[38] - r[38] <= 1
 mccormick3[39]: x[39] + u[39] - r[39] <= 1
 mccormick3[40]: x[40] + u[40] - r[40] <= 1
 mccormick3[41]: x[41] + u[41] - r[41] <= 1
 mccormick3[42]: x[42] + u[42] - r[42] <= 1
 mccormick3[43]: x[43] + u[43] - r[43] <= 1
 mccormick3[44]: x[44] + u[44] - r[44] <= 1
 mccormick3[45]: x[45] + u[45] - r[45] <= 1
 mccormick3[46]: x[46] + u[46] - r[46] <= 1
 mccormick3[47]: x[47] + u[47] - r[47] <= 1
 mccormick3[48]: x[48] + u[48] - r[48] <= 1
 mccormick3[49]: x[49] + u[49] - r[49] <= 1
 mccormick3[50]: x[50] + u[50] - r[50] <= 1
 mccormick3[51]: x[51] + u[51] - r[51] <= 1
 mccormick3[52]: x[52] + u[52] - r[52] <= 1
 mccormick3[53]: x[53] + u[53] - r[53] <= 1
 mccormick3[54]: x[54] + u[54] - r[54] <= 1
 mccormick3[55]: x[55] + u[55] - r[55] <= 1
 mccormick3[56]: x[56] + u[56] - r[56] <= 1
 mccormick3[57]: x[57] + u[57] - r[57] <= 1
 mccormick3[58]: x[58] + u[58] - r[58] <= 1
 mccormick3[59]: x[59] + u[59] - r[59] <= 1
 mccormick3[60]: x[60] + u[60] - r[60] <= 1
 mccormick3[61]: x[61] + u[61] - r[61] <= 1
 mccormick3[62]: x[62] + u[62] - r[62] <= 1
 mccormick3[63]: x[63] + u[63] - r[63] <= 1
 mccormick3[64]: x[64] + u[64] - r[64] <= 1
 mccormick3[65]: x[65] + u[65] - r[65] <= 1
 mccormick3[66]: x[66] + u[66] - r[66] <= 1
 mccormick3[67]: x[67] + u[67] - r[67] <= 1
 mccormick3[68]: x[68] + u[68] - r[68] <= 1
 mccormick3[69]: x[69] + u[69] - r[69] <= 1
 mccormick3[70]: x[70] + u[70] - r[70] <= 1
 mccormick3[71]: x[71] + u[71] - r[71] <= 1
 mccormick3[72]: x[72] + u[72] - r[72] <= 1
 mccormick3[73]: x[73] + u[73] - r[73] <= 1
 mccormick3[74]: x[74] + u[74] - r[74] <= 1
 mccormick3[75]: x[75] + u[75] - r[75] <= 1
 mccormick3[76]: x[76] + u[76] - r[76] <= 1
 mccormick3[77]: x[77] + u[77] - r[77] <= 1
 mccormick3[78]: x[78] + u[78] - r[78] <= 1
 mccormick3[79]: x[79] + u[79] - r[79] <= 1
 mccormick3[80]: x[80] + u[80] - r[80] <= 1
 mccormick3[81]: x[81] + u[81] - r[81] <= 1
 mccormick3[82]: x[82] + u[82] - r[82] <= 1
 mccormick3[83]: x[83] + u[83] - r[83] <= 1
 mccormick3[84]: x[84] + u[84] - r[84] <= 1
 mccormick3[85]: x[85] + u[85] - r[85] <= 1
 mccormick3[86]: x[86] + u[86] - r[86] <= 1
 mccormick3[87]: x[87] + u[87] - r[87] <= 1
 mccormick3[88]: x[88] + u[88] - r[88] <= 1
 mccormick3[89]: x[89] + u[89] - r[89] <= 1
 mccormick3[90]: x[90] + u[90] - r[90] <= 1
 mccormick3[91]: x[91] + u[91] - r[91] <= 1
 mccormick3[92]: x[92] + u[92] - r[92] <= 1
 mccormick3[93]: x[93] + u[93] - r[93] <= 1
 mccormick3[94]: x[94] + u[94] - r[94] <= 1
 mccormick3[95]: x[95] + u[95] - r[95] <= 1
 mccormick3[96]: x[96] + u[96] - r[96] <= 1
 mccormick3[97]: x[97] + u[97] - r[97] <= 1
 mccormick3[98]: x[98] + u[98] - r[98] <= 1
 mccormick3[99]: x[99] + u[99] - r[99] <= 1
 mccormick3[100]: x[100] + u[100] - r[100] <= 1
 mccormick3[101]: x[101] + u[101] - r[101] <= 1
 mccormick3[102]: x[102] + u[102] - r[102] <= 1
 mccormick3[103]: x[103] + u[103] - r[103] <= 1
 mccormick3[104]: x[104] + u[104] - r[104] <= 1
 mccormick3[105]: x[105] + u[105] - r[105] <= 1
 mccormick3[106]: x[106] + u[106] - r[106] <= 1
 mccormick3[107]: x[107] + u[107] - r[107] <= 1
 mccormick3[108]: x[108] + u[108] - r[108] <= 1
 mccormick3[109]: x[109] + u[109] - r[109] <= 1
Bounds
Binaries
 x[0] x[1] x[2] x[3] x[4] x[5] x[6] x[7] x[8] x[9] x[10] x[11] x[12] x[13]
 x[14] x[15] x[16] x[17] x[18] x[19] x[20] x[21] x[22] x[23] x[24] x[25]
 x[26] x[27] x[28] x[29] x[30] x[31] x[32] x[33] x[34] x[35] x[36] x[37]
 x[38] x[39] x[40] x[41] x[42] x[43] x[44] x[45] x[46] x[47] x[48] x[49]
 x[50] x[51] x[52] x[53] x[54] x[55] x[56] x[57] x[58] x[59] x[60] x[61]
 x[62] x[63] x[64] x[65] x[66] x[67] x[68] x[69] x[70] x[71] x[72] x[73]
 x[74] x[75] x[76] x[77] x[78] x[79] x[80] x[81] x[82] x[83] x[84] x[85]
 x[86] x[87] x[88] x[89] x[90] x[91] x[92] x[93] x[94] x[95] x[96] x[97]
 x[98] x[99] x[100] x[101] x[102] x[103] x[104] x[105] x[106] x[107] x[108]
 x[109] u[0] u[1] u[2] u[3] u[4] u[5] u[6] u[7] u[8] u[9] u[10] u[11] u[12]
 u[13] u[14] u[15] u[16] u[17] u[18] u[19] u[20] u[21] u[22] u[23] u[24]
 u[25] u[26] u[27] u[28] u[29] u[30] u[31] u[32] u[33] u[34] u[35] u[36]
 u[37] u[38] u[39] u[40] u[41] u[42] u[43] u[44] u[45] u[46] u[47] u[48]
 u[49] u[50] u[51] u[52] u[53] u[54] u[55] u[56] u[57] u[58] u[59] u[60]
 u[61] u[62] u[63] u[64] u[65] u[66] u[67] u[68] u[69] u[70] u[71] u[72]
 u[73] u[74] u[75] u[76] u[77] u[78] u[79] u[80] u[81] u[82] u[83] u[84]
 u[85] u[86] u[87] u[88] u[89] u[90] u[91] u[92] u[93] u[94] u[95] u[96]
 u[97] u[98] u[99] u[100] u[101] u[102] u[103] u[104] u[105] u[106] u[107]
 u[108] u[109] r[0] r[1] r[2] r[3] r[4] r[5] r[6] r[7] r[8] r[9] r[10]
 r[11] r[12] r[13] r[14] r[15] r[16] r[17] r[18] r[19] r[20] r[21] r[22]
 r[23] r[24] r[25] r[26] r[27] r[28] r[29] r[30] r[31] r[32] r[33] r[34]
 r[35] r[36] r[37] r[38] r[39] r[40] r[41] r[42] r[43] r[44] r[45] r[46]
 r[47] r[48] r[49] r[50] r[51] r[52] r[53] r[54] r[55] r[56] r[57] r[58]
 r[59] r[60] r[61] r[62] r[63] r[64] r[65] r[66] r[67] r[68] r[69] r[70]
 r[71] r[72] r[73] r[74] r[75] r[76] r[77] r[78] r[79] r[80] r[81] r[82]
 r[83] r[84] r[85] r[86] r[87] r[88] r[89] r[90] r[91] r[92] r[93] r[94]
 r[95] r[96] r[97] r[98] r[99] r[100] r[101] r[102] r[103] r[104] r[105]
 r[106] r[107] r[108] r[109]
End
