instances/knapsack/discrete_knapsack_uncertainty/knapsack_110_18.kp
49534
110
570

42 4.2 92
50 5.0 93
88 8.8 46
97 9.7 86
74 7.4 4
96 9.6 43
79 7.9 96
46 4.6 70
7 0.7 49
32 3.2 45
86 8.6 9
45 4.5 21
2 0.2 97
54 5.4 72
35 3.5 93
27 2.7 82
55 5.5 96
6 0.6 4
71 7.1 97
56 5.6 24
23 2.3 4
46 4.6 25
14 1.4 90
69 6.9 54
3 0.3 67
30 3.0 21
48 4.8 22
70 7.0 86
76 7.6 20
1 0.1 71
76 7.6 7
38 3.8 42
86 8.6 2
31 3.1 5
34 3.4 82
7 0.7 15
54 5.4 35
71 7.1 93
42 4.2 89
65 6.5 14
29 2.9 46
96 9.6 36
44 4.4 80
68 6.8 69
57 5.7 5
13 1.3 65
36 3.6 15
84 8.4 51
29 2.9 3
22 2.2 8
97 9.7 57
74 7.4 73
59 5.9 81
74 7.4 23
11 1.1 6
90 9.0 48
7 0.7 57
73 7.3 10
66 6.6 26
64 6.4 93
31 3.1 54
89 8.9 36
82 8.2 56
93 9.3 56
66 6.6 9
54 5.4 67
95 9.5 31
93 9.3 64
66 6.6 79
64 6.4 16
20 2.0 15
40 4.0 81
96 9.6 23
69 6.9 52
82 8.2 25
35 3.5 56
85 8.5 96
25 2.5 83
59 5.9 62
61 6.1 54
64 6.4 65
88 8.8 48
65 6.5 84
20 2.0 20
4 0.4 7
96 9.6 87
82 8.2 24
66 6.6 81
12 1.2 10
33 3.3 89
83 8.3 28
31 3.1 48
35 3.5 88
66 6.6 55
86 8.6 58
43 4.3 5
35 3.5 59
55 5.5 86
30 3.0 67
70 7.0 95
79 7.9 63
22 2.2 44
40 4.0 77
82 8.2 72
15 1.5 33
84 8.4 73
89 8.9 12
89 8.9 3
57 5.7 4
35 3.5 75

72844
532

[4.249295600255187 4.206281901083427 0.6381577905987595 0.42205321885420094 3.6440051715375392 3.9368094794355866 3.3443571279686926 0.8912721030419527 2.04279920881975 0.5388722003719073 3.298219093009303 4.310288865952561 0.860164796224743 2.1099566920861728 2.665432078045546 1.052342258440221 0.15681130917831937 2.768703346565619 4.498759839487544 3.49668757252545 3.659532303103951 3.1825080005753508 2.6153970482136226 0.5435475070470154 0.5472431936006095 2.5468051060457046 1.136885854890941 0.3206640420177629 2.2446054276311167 2.341761926935709 0.42736449821784445 3.5973787853218555 4.022153611255081 1.2681091335618864 0.06520799580192835 2.0362239409238128 1.7174621201027032 1.4218767290072098 2.4439587183229015 2.6345488652024045 3.6413163438574876 2.5166184898878443 2.4746344881555427 0.7963903299822239 3.434429933158619 1.000645677993553 1.335392095157899 0.743433965532696 4.693074936858728 0.4305512214731355 0.8996724581391571 1.577472134179461 1.3981808687525208 2.657614170595898 0.7506272709947466 3.389232510033494 4.209834935202567 1.4135845394264965 2.0666724068783604 2.0619329872018843 0.8825017958754763 0.6816759838276322 1.8920122296199784 1.7921480213396634 1.8448226088049369 3.101077713351046 0.9411361128608329 4.72691327893716 1.6688000374513519 0.47803301564201983 2.871731074656674 4.505006001256699 3.3515718362969924 0.4777775446120152 3.146474436423456 2.4867299694927376 4.5150456937663135 4.3554856478013235 0.4590721538674253 2.525775515908793 1.5166885537118249 3.4042607113333223 4.248545519695887 1.9377158959234098 1.0716777326333322 4.679100791476963 0.2191766310083712 1.7925233681762367 3.5864993665658362 1.722612048784517 1.7254207662808367 1.049176263566895 0.9022103464043653 2.407249841972712 0.8101299427769353 3.1549355413035567 3.745075171807349 2.4603291519340837 2.8558154555275865 1.2966587944059913 3.3872137808554155 2.629368803291435 3.3819639589929027 3.434193149024013 4.4196108728900585 0.817825313958741 1.414245340624531 4.185030866766488 2.752893986520168 1.8990309636165943]

[77 61 59 36 49 95 78 57 10 79 81 32 61 5 62 2 46 53 2 43 6 93 13 44 30 73 87 5 87 88 75 21 61 42 69 14 85 82 45 84 8 79 19 63 12 12 23 87 48 49 64 1 54 93 78 93 30 64 97 75 54 92 57 80 53 17 46 32 45 79 91 79 39 72 89 30 52 60 74 8 7 39 4 39 39 51 1 45 83 68 66 62 86 33 9 46 30 14 93 21 74 53 91 9 54 51 36 4 72 22]
